Gurobi Optimizer version 9.0.1 build v9.0.1rc0 (linux64)
Optimize a model with 5995 rows, 197472 columns and 584802 nonzeros
Model fingerprint: 0x4dae4a0d
Coefficient statistics:
  Matrix range     [7e-02, 2e+00]
  Objective range  [2e+01, 2e+01]
  Bounds range     [0e+00, 0e+00]
  RHS range        [1e+00, 1e+00]
Presolve removed 1486 rows and 10716 columns
Presolve time: 1.51s
Presolved: 4509 rows, 186756 columns, 551579 nonzeros
Ordering time: 0.00s

Barrier statistics:
 Free vars  : 3740
 AA' NZ     : 2.894e+04
 Factor NZ  : 1.265e+05 (roughly 80 MBytes of memory)
 Factor Ops : 4.352e+06 (less than 1 second per iteration)
 Threads    : 1

                  Objective                Residual
Iter       Primal          Dual         Primal    Dual     Compl     Time
   0   1.10301339e+06  0.00000000e+00  2.44e-01 0.00e+00  1.20e+01     2s
   1   2.79465746e+05  2.09209925e-05  3.75e-04 3.19e-03  1.53e+00     2s
   2   2.99367558e+02  3.26559537e-04  2.78e-08 1.25e-04  1.64e-03     2s
   3   1.63372818e+01  4.16788422e-01  2.69e-08 9.39e-07  8.70e-05     2s
   4   7.20373047e+00  1.43871812e+00  2.48e-07 2.89e-07  3.15e-05     2s
   5   6.39037030e+00  1.44527141e+00  1.83e-07 2.22e-07  2.70e-05     2s
   6   5.98371609e+00  1.79217378e+00  1.40e-07 1.42e-07  2.29e-05     2s
   7   4.29360045e+00  1.69544550e+00  5.40e-08 2.04e-07  1.42e-05     2s
   8   2.65245358e+00  1.90047001e+00  3.04e-07 1.77e-07  4.11e-06     2s
   9   2.44199663e+00  1.92712109e+00  2.32e-07 1.01e-07  2.81e-06     3s
  10   2.08533503e+00  1.93157622e+00  1.52e-07 9.00e-08  8.39e-07     3s
  11   2.05163317e+00  1.93462615e+00  2.56e-07 8.27e-08  6.38e-07     3s
  12   2.02359643e+00  1.94981284e+00  1.72e-07 4.89e-08  4.01e-07     3s
  13   2.00067285e+00  1.95364330e+00  2.63e-07 4.03e-08  2.55e-07     3s
  14   1.99153450e+00  1.95398121e+00  2.72e-07 3.77e-08  2.04e-07     3s
  15   1.99029995e+00  1.95456553e+00  6.22e-07 3.58e-08  1.94e-07     3s
  16   1.98191178e+00  1.95939572e+00  4.00e-07 1.92e-08  1.21e-07     3s
  17   1.98008586e+00  1.95990015e+00  3.86e-07 1.75e-08  1.08e-07     3s
  18   1.97981947e+00  1.96005848e+00  3.86e-07 1.70e-08  1.06e-07     4s
  19   1.97932091e+00  1.96023769e+00  4.42e-07 1.63e-08  1.02e-07     4s
  20   1.97931487e+00  1.96023893e+00  4.51e-07 1.63e-08  1.02e-07     4s
  21   1.97927562e+00  1.96022105e+00  8.07e-07 1.62e-08  1.02e-07     4s
  22   1.97909973e+00  1.96028891e+00  7.98e-07 1.60e-08  1.00e-07     4s
  23   1.97856451e+00  1.96059587e+00  7.70e-07 1.48e-08  9.56e-08     4s
  24   1.97836540e+00  1.96063611e+00  7.60e-07 1.46e-08  9.40e-08     5s
  25   1.97816687e+00  1.96069590e+00  7.46e-07 1.44e-08  9.26e-08     5s
  26   1.97796804e+00  1.96071296e+00  7.33e-07 1.43e-08  9.14e-08     5s
  27   1.97773419e+00  1.96084084e+00  7.21e-07 1.39e-08  8.92e-08     5s
  28   1.97766999e+00  1.96104938e+00  2.25e-06 1.30e-08  8.77e-08     5s
  29   1.97767547e+00  1.96105441e+00  2.25e-06 1.30e-08  8.77e-08     5s
  30   1.97722346e+00  1.96118951e+00  2.22e-06 1.24e-08  8.46e-08     5s
  31   1.97720809e+00  1.96119821e+00  2.25e-06 1.24e-08  8.45e-08     6s
  32   1.97668909e+00  1.96124365e+00  2.10e-06 1.22e-08  8.12e-08     6s
  33   1.97657210e+00  1.96128910e+00  2.06e-06 1.20e-08  8.03e-08     6s
  34   1.97640771e+00  1.96132684e+00  2.13e-06 1.19e-08  7.91e-08     6s
  35   1.97600709e+00  1.96140287e+00  2.13e-06 1.16e-08  7.63e-08     6s
  36   1.97578888e+00  1.96145285e+00  2.53e-06 1.13e-08  7.50e-08     6s
  37   1.97577545e+00  1.96145260e+00  2.52e-06 1.13e-08  7.50e-08     6s
  38   1.97564782e+00  1.96155758e+00  2.49e-06 1.08e-08  7.38e-08     6s
  39   1.97489946e+00  1.96172814e+00  2.31e-06 1.01e-08  6.91e-08     7s
  40   1.97489834e+00  1.96172953e+00  2.31e-06 1.01e-08  6.91e-08     7s
  41   1.97446680e+00  1.96178506e+00  2.32e-06 9.77e-09  6.70e-08     7s
  42   1.97448365e+00  1.96179574e+00  2.50e-06 9.73e-09  6.66e-08     7s
  43   1.97371909e+00  1.96204067e+00  2.51e-06 8.62e-09  6.14e-08     7s
  44   1.97310694e+00  1.96218962e+00  2.31e-06 7.92e-09  5.74e-08     7s
  45   1.97305612e+00  1.96219530e+00  2.33e-06 7.89e-09  5.70e-08     7s
  46   1.97278150e+00  1.96225519e+00  2.23e-06 7.53e-09  5.53e-08     8s
  47   1.97257982e+00  1.96226119e+00  2.43e-06 7.48e-09  5.44e-08     8s
  48   1.97253909e+00  1.96229426e+00  2.41e-06 7.34e-09  5.39e-08     8s
  49   1.97205127e+00  1.96237541e+00  2.10e-06 6.98e-09  5.05e-08     8s
  50   1.97198851e+00  1.96238188e+00  2.13e-06 6.94e-09  5.02e-08     8s
  51   1.97198304e+00  1.96238605e+00  2.14e-06 6.92e-09  5.01e-08     8s
  52   1.97192460e+00  1.96240586e+00  2.11e-06 6.83e-09  4.96e-08     8s
  53   1.97168943e+00  1.96242567e+00  2.07e-06 6.73e-09  4.83e-08     9s
  54   1.97167250e+00  1.96242280e+00  2.03e-06 6.73e-09  4.82e-08     9s
  55   1.97148240e+00  1.96247255e+00  2.02e-06 6.45e-09  4.71e-08     9s
  56   1.97124199e+00  1.96254392e+00  1.91e-06 6.10e-09  4.54e-08     9s
  57   1.97120885e+00  1.96254102e+00  1.92e-06 6.08e-09  4.52e-08     9s
  58   1.97112134e+00  1.96254299e+00  1.86e-06 6.07e-09  4.51e-08     9s
  59   1.97072266e+00  1.96254864e+00  1.91e-06 6.04e-09  4.30e-08     9s
  60   1.97057075e+00  1.96258086e+00  1.81e-06 5.86e-09  4.18e-08    10s
  61   1.97056948e+00  1.96258171e+00  1.81e-06 5.86e-09  4.18e-08    10s
  62   1.97056185e+00  1.96258187e+00  1.83e-06 5.86e-09  4.17e-08    10s
  63   1.96914281e+00  1.96297184e+00  2.02e-06 3.81e-09  3.24e-08    10s
  64   1.96914561e+00  1.96297120e+00  2.02e-06 3.81e-09  3.24e-08    10s
  65   1.96899523e+00  1.96296786e+00  2.13e-06 3.80e-09  3.24e-08    10s
  66   1.96877016e+00  1.96302435e+00  2.52e-06 3.54e-09  3.10e-08    11s
  67   1.96842978e+00  1.96309237e+00  2.66e-06 3.21e-09  2.86e-08    11s
  68   1.96700525e+00  1.96321224e+00  6.88e-06 2.88e-09  2.17e-08    11s
  69   1.96696609e+00  1.96321575e+00  6.81e-06 2.88e-09  2.14e-08    11s
  70   1.96673719e+00  1.96323809e+00  1.12e-05 2.86e-09  2.01e-08    11s
  71   1.96664774e+00  1.96324955e+00  1.05e-05 2.85e-09  1.96e-08    12s
  72   1.96668384e+00  1.96325206e+00  1.05e-05 2.85e-09  1.95e-08    12s
  73   1.96661603e+00  1.96325206e+00  1.03e-05 2.84e-09  1.95e-08    12s
  74   1.96627045e+00  1.96327465e+00  1.33e-05 2.82e-09  1.82e-08    12s
  75   1.96520320e+00  1.96341867e+00  8.03e-06 2.14e-09  1.15e-08    12s
  76   1.96522655e+00  1.96342491e+00  7.92e-06 2.14e-09  1.13e-08    13s
  77   1.96535687e+00  1.96342553e+00  1.08e-05 2.14e-09  1.13e-08    13s
  78   1.96514649e+00  1.96343138e+00  9.55e-06 2.14e-09  1.08e-08    13s
  79   1.96512218e+00  1.96343160e+00  1.16e-05 2.14e-09  1.07e-08    13s
  80   1.96522952e+00  1.96344201e+00  1.47e-05 2.14e-09  1.01e-08    13s
  81   1.96530534e+00  1.96345657e+00  1.36e-05 2.13e-09  9.46e-09    13s
  82   1.96526757e+00  1.96345501e+00  5.60e-05 2.13e-09  9.47e-09    13s
  83   1.96524756e+00  1.96345682e+00  6.17e-05 2.11e-09  9.15e-09    14s
  84   1.96512630e+00  1.96346709e+00  1.86e-04 2.12e-09  8.79e-09    14s
  85   1.96511731e+00  1.96347173e+00  4.59e-04 2.15e-09  8.74e-09    14s
  86   1.96511584e+00  1.96347298e+00  4.84e-04 2.15e-09  8.73e-09    14s
  87   1.96637535e+00  1.96347501e+00  5.43e-04 2.15e-09  8.03e-09    14s
  88   1.96634926e+00  1.96347591e+00  7.05e-04 2.15e-09  8.00e-09    14s
  89   1.96664824e+00  1.96347623e+00  2.16e-03 2.15e-09  7.90e-09    14s
  90   1.96664382e+00  1.96348046e+00  1.73e-03 2.15e-09  7.87e-09    15s
  91   1.96639888e+00  1.96348565e+00  1.57e-03 2.15e-09  7.73e-09    15s
  92   1.96556874e+00  1.96348952e+00  1.84e-03 2.15e-09  7.24e-09    15s
  93   1.96470611e+00  1.96349021e+00  1.78e-03 2.15e-09  6.96e-09    15s
  94   1.96470112e+00  1.96349376e+00  2.27e-03 2.15e-09  6.94e-09    15s
  95   1.96469903e+00  1.96349435e+00  5.05e-03 2.15e-09  6.93e-09    15s
  96   1.96528235e+00  1.96349706e+00  7.31e-03 2.15e-09  6.74e-09    16s
  97   1.96407236e+00  1.96350080e+00  6.85e-03 2.15e-09  6.32e-09    16s
  98   1.96582563e+00  1.96350501e+00  4.83e-03 2.15e-09  4.87e-09    16s
  99   1.96546708e+00  1.96350528e+00  5.71e-03 2.15e-09  4.86e-09    16s
 100   1.96525623e+00  1.96350722e+00  5.22e-03 2.15e-09  4.57e-09    16s
 101   1.96319086e+00  1.96351444e+00  4.50e-03 2.15e-09  3.96e-09    16s
 102   1.96298064e+00  1.96351618e+00  7.93e-03 2.15e-09  3.85e-09    16s
 103   1.96298662e+00  1.96351617e+00  5.44e-03 2.15e-09  3.85e-09    16s
 104   1.96297169e+00  1.96351610e+00  7.72e-03 2.15e-09  3.84e-09    17s
 105   1.96341288e+00  1.96351890e+00  6.93e-03 2.16e-09  3.49e-09    17s
 106   1.96319785e+00  1.96352305e+00  6.94e-03 2.16e-09  3.35e-09    17s
 107   1.96306033e+00  1.96352400e+00  6.84e-03 2.16e-09  3.30e-09    17s
 108   1.96132516e+00  1.96352493e+00  6.40e-03 2.16e-09  3.09e-09    17s
 109   1.96110119e+00  1.96352591e+00  6.05e-03 2.16e-09  2.92e-09    18s
 110   1.96099548e+00  1.96352693e+00  5.95e-03 2.16e-09  2.70e-09    18s
 111   1.96127128e+00  1.96352994e+00  5.99e-03 2.16e-09  2.56e-09    18s
 112   1.96118527e+00  1.96352994e+00  6.58e-03 2.16e-09  2.54e-09    18s
 113   1.96067621e+00  1.96353465e+00  6.04e-03 2.16e-09  2.40e-09    18s
 114   1.96175140e+00  1.96353498e+00  5.70e-03 2.16e-09  2.35e-09    18s
 115   1.96115410e+00  1.96353554e+00  5.56e-03 2.16e-09  2.25e-09    18s
 116   1.96070453e+00  1.96353551e+00  7.90e-03 2.16e-09  2.25e-09    19s
 117   1.96067011e+00  1.96353559e+00  7.90e-03 2.16e-09  2.25e-09    19s
 118   1.96015330e+00  1.96353847e+00  7.34e-03 2.16e-09  2.08e-09    19s
 119   1.96010770e+00  1.96353850e+00  7.32e-03 2.16e-09  2.08e-09    19s
 120   1.96081984e+00  1.96353853e+00  1.45e-02 2.16e-09  1.90e-09    19s
 121   1.96081321e+00  1.96353863e+00  1.44e-02 2.16e-09  1.90e-09    19s
 122   1.96080440e+00  1.96353862e+00  1.44e-02 2.16e-09  1.90e-09    20s
 123   1.96121085e+00  1.96353905e+00  1.38e-02 2.16e-09  1.82e-09    20s
 124   1.95996355e+00  1.96354189e+00  1.22e-02 2.16e-09  1.60e-09    20s
 125   1.95994536e+00  1.96354188e+00  1.23e-02 2.16e-09  1.60e-09    20s
 126   1.96092396e+00  1.96354226e+00  1.12e-02 2.16e-09  1.46e-09    20s
 127   1.96094330e+00  1.96354229e+00  1.12e-02 2.16e-09  1.46e-09    20s
 128   1.96146560e+00  1.96354232e+00  1.08e-02 2.16e-09  1.41e-09    20s
 129   1.96175649e+00  1.96354229e+00  1.49e-02 2.16e-09  1.40e-09    21s
 130   1.96012087e+00  1.96354221e+00  1.30e-02 2.16e-09  1.23e-09    21s
 131   1.95999494e+00  1.96354338e+00  2.84e-02 2.17e-09  1.17e-09    21s
 132   1.95967000e+00  1.96354377e+00  2.76e-02 2.17e-09  1.14e-09    21s
 133   1.95937763e+00  1.96354399e+00  2.72e-02 2.17e-09  1.12e-09    21s
 134   1.95979615e+00  1.96354400e+00  2.71e-02 2.17e-09  1.11e-09    21s
 135   1.96010268e+00  1.96354449e+00  2.28e-02 2.18e-09  9.39e-10    22s
 136   1.95942134e+00  1.96354405e+00  2.25e-02 2.18e-09  9.27e-10    22s
 137   1.95945534e+00  1.96354419e+00  2.23e-02 2.18e-09  9.12e-10    22s
 138   1.95980865e+00  1.96354414e+00  5.80e-02 2.18e-09  8.13e-10    22s
 139   1.95946607e+00  1.96354451e+00  5.76e-02 2.18e-09  8.07e-10    22s
 140   1.95884300e+00  1.96354475e+00  5.59e-02 2.18e-09  7.85e-10    22s
 141   1.95920714e+00  1.96354474e+00  6.57e-02 2.18e-09  7.73e-10    22s
 142   1.95910399e+00  1.96354465e+00  6.53e-02 2.19e-09  7.64e-10    22s
 143   1.95923570e+00  1.96354722e+00  6.30e-02 2.19e-09  7.37e-10    23s
 144   1.96041492e+00  1.96354697e+00  1.67e-01 2.19e-09  7.30e-10    23s
 145   1.95973187e+00  1.96354635e+00  1.56e-01 2.19e-09  6.74e-10    23s
 146   1.95846284e+00  1.96354642e+00  1.20e-01 2.19e-09  5.25e-10    23s
 147   1.95844832e+00  1.96354634e+00  1.21e-01 2.19e-09  5.25e-10    23s
 148   1.95841610e+00  1.96354618e+00  1.17e-01 2.19e-09  5.07e-10    23s
 149   1.95850544e+00  1.96354618e+00  1.16e-01 2.20e-09  5.07e-10    23s
 150   1.95841090e+00  1.96354595e+00  1.14e-01 2.20e-09  4.96e-10    24s
 151   1.95913157e+00  1.96354592e+00  2.88e-01 2.20e-09  4.96e-10    24s
 152   1.95912048e+00  1.96354592e+00  2.88e-01 2.20e-09  4.95e-10    24s
 153   1.95905264e+00  1.96354624e+00  2.87e-01 2.20e-09  4.94e-10    24s
 154   1.95893277e+00  1.96354644e+00  2.85e-01 2.20e-09  4.90e-10    24s
 155   1.95831574e+00  1.96354556e+00  3.36e-01 2.20e-09  4.28e-10    24s
 156   1.95906984e+00  1.96354543e+00  3.40e-01 2.20e-09  3.96e-10    25s
 157   1.95887098e+00  1.96354540e+00  3.36e-01 2.20e-09  3.86e-10    25s
 158   1.95788297e+00  1.96354472e+00  3.24e-01 2.20e-09  3.70e-10    25s
 159   1.95693425e+00  1.96354482e+00  3.11e-01 2.20e-09  3.55e-10    25s
 160   1.95667731e+00  1.96354491e+00  3.06e-01 2.20e-09  3.53e-10    25s
 161   1.95641776e+00  1.96354471e+00  4.06e-01 2.20e-09  3.52e-10    25s
 162   1.95640648e+00  1.96354471e+00  4.06e-01 2.20e-09  3.52e-10    26s
 163   1.95631957e+00  1.96354462e+00  4.02e-01 2.20e-09  3.48e-10    26s
 164   1.95574253e+00  1.96354438e+00  3.79e-01 2.20e-09  3.28e-10    26s
 165   1.95603009e+00  1.96354429e+00  3.63e-01 2.20e-09  3.15e-10    26s
 166   1.95529234e+00  1.96354430e+00  2.50e-01 2.20e-09  3.14e-10    26s
 167   1.95527997e+00  1.96354384e+00  2.30e-01 2.21e-09  2.88e-10    26s
 168   1.95538042e+00  1.96354388e+00  2.30e-01 2.21e-09  2.87e-10    27s
 169   1.95542115e+00  1.96354380e+00  2.21e-01 2.21e-09  2.77e-10    27s
 170   1.95546825e+00  1.96354359e+00  2.21e-01 2.21e-09  2.76e-10    27s
 171   1.95579454e+00  1.96354356e+00  2.03e-01 2.21e-09  2.53e-10    27s
 172   1.95588282e+00  1.96354354e+00  2.02e-01 2.21e-09  2.52e-10    27s
 173   1.95562269e+00  1.96354363e+00  2.53e-01 2.21e-09  2.49e-10    27s
 174   1.95557659e+00  1.96354344e+00  2.53e-01 2.21e-09  2.49e-10    27s
 175   1.95585326e+00  1.96354287e+00  2.80e-01 2.21e-09  2.35e-10    28s
 176   1.95580192e+00  1.96354302e+00  2.79e-01 2.21e-09  2.35e-10    28s
 177   1.95579925e+00  1.96354302e+00  2.79e-01 2.21e-09  2.35e-10    28s
 178   1.95627217e+00  1.96354204e+00  8.12e-01 2.21e-09  2.25e-10    28s
 179   1.95547454e+00  1.96354153e+00  6.97e-01 2.21e-09  1.94e-10    28s
 180   1.95426012e+00  1.96354150e+00  6.62e-01 2.21e-09  1.79e-10    28s
 181   1.95418481e+00  1.96354145e+00  6.23e-01 2.21e-09  1.68e-10    29s
 182   1.95492724e+00  1.96353982e+00  5.92e-01 2.21e-09  1.60e-10    29s
 183   1.95566916e+00  1.96353957e+00  5.52e-01 2.21e-09  1.50e-10    29s
 184   1.95566963e+00  1.96353978e+00  5.52e-01 2.21e-09  1.50e-10    29s
 185   1.95588577e+00  1.96353937e+00  5.35e-01 2.21e-09  1.45e-10    29s
 186   1.95589043e+00  1.96353942e+00  5.35e-01 2.21e-09  1.45e-10    29s
 187   1.95605607e+00  1.96353942e+00  5.32e-01 2.21e-09  1.44e-10    29s
 188   1.95600914e+00  1.96353968e+00  6.00e-01 2.21e-09  1.37e-10    30s
 189   1.95600140e+00  1.96353958e+00  5.93e-01 2.21e-09  1.32e-10    30s
 190   1.95610290e+00  1.96353963e+00  5.88e-01 2.21e-09  1.31e-10    30s
 191   1.95584126e+00  1.96353963e+00  5.69e-01 2.21e-09  1.27e-10    30s
 192   1.95630353e+00  1.96354011e+00  5.46e-01 2.21e-09  1.22e-10    30s
 193   1.95631830e+00  1.96353999e+00  5.43e-01 2.21e-09  1.21e-10    31s
 194   1.95490531e+00  1.96353984e+00  5.21e-01 2.21e-09  1.21e-10    31s
 195   1.95524472e+00  1.96353986e+00  5.05e-01 2.21e-09  1.17e-10    31s
 196   1.95543510e+00  1.96353982e+00  5.03e-01 2.21e-09  1.17e-10    31s
 197   1.95573963e+00  1.96353855e+00  4.90e-01 2.21e-09  1.14e-10    31s
 198   1.95562030e+00  1.96353857e+00  4.90e-01 2.21e-09  1.14e-10    31s
 199   1.95525396e+00  1.96353844e+00  4.82e-01 2.21e-09  1.12e-10    31s
 200   1.95515337e+00  1.96353838e+00  5.00e-01 2.21e-09  1.10e-10    32s
 201   1.95517912e+00  1.96353817e+00  4.93e-01 2.21e-09  1.08e-10    32s
 202   1.95522828e+00  1.96353817e+00  4.76e-01 2.21e-09  1.05e-10    32s
 203   1.95557060e+00  1.96353823e+00  4.60e-01 2.21e-09  1.01e-10    32s
 204   1.95464888e+00  1.96353837e+00  4.55e-01 2.21e-09  1.00e-10    32s
 205   1.95492853e+00  1.96353854e+00  4.54e-01 2.21e-09  9.98e-11    32s

Barrier performed 205 iterations in 32.20 seconds
Sub-optimal termination - objective 1.99153450e+00

Solver name: Gurobi
Solve time: 32.246045066
Termination status: OTHER_LIMIT
Result count: 1
Primal status: FEASIBLE_POINT
Dual status: FEASIBLE_POINT
